p cnf 112 394
42 56 70 0
55 64 69 0
32 53 90 0
46 54 75 79 0
48 66 0
62 103 0
40 59 110 0
37 43 0
34 71 0
31 67 0
29 52 76 0
39 108 0
60 86 0
57 87 0
74 91 0
72 93 0
94 95 0
33 58 89 97 0
81 99 0
41 82 101 104 0
45 63 92 106 109 111 0
36 50 85 112 0
27 28 0
23 25 88 96 0
21 65 80 0
18 47 102 0
38 44 61 105 107 0
17 35 49 84 0
-16 -42 0
-16 -32 0
-16 -46 0
-32 -42 0
-42 -46 0
-32 -46 0
-15 -71 0
-15 -52 0
-15 -73 0
-52 -71 0
-71 -73 0
-52 -73 0
-58 -94 0
-92 -94 0
-94 -112 0
-58 -92 0
-58 -112 0
-92 -112 0
-28 -96 0
-28 -105 0
-28 -49 0
-96 -105 0
-49 -96 0
-49 -105 0
-15 -16 0
-16 -94 0
-16 -28 0
-15 -94 0
-15 -28 0
-28 -94 0
-42 -71 0
-42 -58 0
-42 -96 0
-58 -71 0
-71 -96 0
-58 -96 0
-32 -52 0
-32 -92 0
-32 -105 0
-52 -92 0
-52 -105 0
-92 -105 0
-46 -73 0
-46 -112 0
-46 -49 0
-73 -112 0
-49 -73 0
-49 -112 0
-70 -83 0
-55 -83 0
-53 -83 0
-75 -83 0
-55 -70 0
-53 -70 0
-70 -75 0
-53 -55 0
-55 -75 0
-53 -75 0
-14 -26 0
-14 -66 0
-14 -103 0
-14 -110 0
-26 -66 0
-26 -103 0
-26 -110 0
-66 -103 0
-66 -110 0
-103 -110 0
-34 -37 0
-12 -37 0
-29 -37 0
-11 -37 0
-12 -34 0
-29 -34 0
-11 -34 0
-12 -29 0
-11 -12 0
-11 -29 0
-72 -97 0
-41 -72 0
-72 -106 0
-50 -72 0
-41 -97 0
-97 -106 0
-50 -97 0
-41 -106 0
-41 -50 0
-50 -106 0
-10 -88 0
-10 -18 0
-10 -44 0
-10 -17 0
-18 -88 0
-44 -88 0
-17 -88 0
-18 -44 0
-17 -18 0
-17 -44 0
-14 -83 0
-37 -83 0
-72 -83 0
-10 -83 0
-14 -37 0
-14 -72 0
-10 -14 0
-37 -72 0
-10 -37 0
-10 -72 0
-26 -70 0
-34 -70 0
-70 -97 0
-70 -88 0
-26 -34 0
-26 -97 0
-26 -88 0
-34 -97 0
-34 -88 0
-88 -97 0
-55 -66 0
-12 -55 0
-41 -55 0
-18 -55 0
-12 -66 0
-41 -66 0
-18 -66 0
-12 -41 0
-12 -18 0
-18 -41 0
-53 -103 0
-29 -53 0
-53 -106 0
-44 -53 0
-29 -103 0
-103 -106 0
-44 -103 0
-29 -106 0
-29 -44 0
-44 -106 0
-75 -110 0
-11 -75 0
-50 -75 0
-17 -75 0
-11 -110 0
-50 -110 0
-17 -110 0
-11 -50 0
-11 -17 0
-17 -50 0
-45 -89 0
-25 -61 0
-25 -89 0
-45 -61 0
-9 -67 0
-67 -76 0
-9 -76 0
-82 -99 0
-63 -99 0
-63 -82 0
-21 -47 0
-21 -107 0
-47 -107 0
-67 -99 0
-21 -67 0
-21 -99 0
-9 -82 0
-9 -47 0
-47 -82 0
-63 -76 0
-76 -107 0
-63 -107 0
-24 -98 0
-24 -62 0
-24 -40 0
-62 -98 0
-40 -98 0
-40 -62 0
-8 -20 0
-8 -108 0
-8 -60 0
-20 -108 0
-20 -60 0
-60 -108 0
-30 -57 0
-57 -91 0
-57 -78 0
-30 -91 0
-30 -78 0
-78 -91 0
-23 -80 0
-23 -38 0
-23 -84 0
-38 -80 0
-80 -84 0
-38 -84 0
-8 -24 0
-24 -57 0
-23 -24 0
-8 -57 0
-8 -23 0
-23 -57 0
-20 -98 0
-30 -98 0
-80 -98 0
-20 -30 0
-20 -80 0
-30 -80 0
-62 -108 0
-62 -91 0
-38 -62 0
-91 -108 0
-38 -108 0
-38 -91 0
-40 -60 0
-40 -78 0
-40 -84 0
-60 -78 0
-60 -84 0
-78 -84 0
-6 -7 0
-5 -7 0
-7 -64 0
-7 -54 0
-5 -6 0
-6 -64 0
-6 -54 0
-5 -64 0
-5 -54 0
-54 -64 0
-3 -4 0
-4 -19 0
-4 -48 0
-4 -59 0
-3 -19 0
-3 -48 0
-3 -59 0
-19 -48 0
-19 -59 0
-48 -59 0
-2 -43 0
-31 -43 0
-43 -68 0
-43 -77 0
-2 -31 0
-2 -68 0
-2 -77 0
-31 -68 0
-31 -77 0
-68 -77 0
-93 -95 0
-81 -93 0
-93 -101 0
-85 -93 0
-81 -95 0
-95 -101 0
-85 -95 0
-81 -101 0
-81 -85 0
-85 -101 0
-1 -27 0
-1 -65 0
-1 -102 0
-1 -35 0
-27 -65 0
-27 -102 0
-27 -35 0
-65 -102 0
-35 -65 0
-35 -102 0
-4 -7 0
-7 -43 0
-7 -93 0
-1 -7 0
-4 -43 0
-4 -93 0
-1 -4 0
-43 -93 0
-1 -43 0
-1 -93 0
-3 -6 0
-2 -6 0
-6 -95 0
-6 -27 0
-2 -3 0
-3 -95 0
-3 -27 0
-2 -95 0
-2 -27 0
-27 -95 0
-5 -19 0
-5 -31 0
-5 -81 0
-5 -65 0
-19 -31 0
-19 -81 0
-19 -65 0
-31 -81 0
-31 -65 0
-65 -81 0
-48 -64 0
-64 -68 0
-64 -101 0
-64 -102 0
-48 -68 0
-48 -101 0
-48 -102 0
-68 -101 0
-68 -102 0
-101 -102 0
-54 -59 0
-54 -77 0
-54 -85 0
-35 -54 0
-59 -77 0
-59 -85 0
-35 -59 0
-77 -85 0
-35 -77 0
-35 -85 0
-56 -69 0
-56 -90 0
-56 -79 0
-69 -90 0
-69 -79 0
-79 -90 0
-22 -100 0
-22 -39 0
-22 -86 0
-39 -100 0
-86 -100 0
-39 -86 0
-51 -87 0
-74 -87 0
-13 -87 0
-51 -74 0
-13 -51 0
-13 -74 0
-33 -104 0
-33 -111 0
-33 -36 0
-104 -111 0
-36 -104 0
-36 -111 0
-22 -56 0
-56 -87 0
-33 -56 0
-22 -87 0
-22 -33 0
-33 -87 0
-69 -100 0
-51 -69 0
-69 -104 0
-51 -100 0
-100 -104 0
-51 -104 0
-39 -90 0
-74 -90 0
-90 -111 0
-39 -74 0
-39 -111 0
-74 -111 0
-79 -86 0
-13 -79 0
-36 -79 0
-13 -86 0
-36 -86 0
-13 -36 0
